0 3 4 2 7 5 1 7 8 9 10
3 0 4 6 3 4 2 6 7 8 9
4 4 0 5 8 3 3 5 6 7 8
2 6 5 0 6 2 4 4 5 6 7
7 3 8 6 0 1 5 3 4 5 6
5 4 3 2 1 0 6 2 3 4 5
1 2 3 4 5 6 0 1 2 3 4
7 6 5 4 3 2 1 0 1 2 3
8 7 6 5 4 3 2 1 0 1 2
9 8 7 6 5 4 3 2 1 0 1
10 9 8 7 6 5 4 3 2 1 0